SECTION Graph
Nodes 243
Edges 1215
E 2 1 201
E 3 1 204
E 3 2 106
E 4 1 201
E 5 2 104
E 5 4 101
E 6 3 103
E 6 4 108
E 6 5 105
E 7 1 201
E 7 4 103
E 8 2 110
E 8 5 103
E 8 7 105
E 9 3 110
E 9 6 106
E 9 7 101
E 9 8 110
E 10 1 202
E 11 2 104
E 11 10 105
E 12 3 109
E 12 10 101
E 12 11 102
E 13 4 109
E 13 10 107
E 14 5 107
E 14 11 106
E 14 13 110
E 15 6 210
E 15 12 206
E 15 13 207
E 15 14 203
E 16 7 103
E 16 10 108
E 16 13 110
E 17 8 105
E 17 11 104
E 17 14 110
E 17 16 110
E 18 9 103
E 18 12 103
E 18 15 203
E 18 16 104
E 18 17 110
E 19 1 202
E 19 10 104
E 20 2 104
E 20 11 104
E 20 19 108
E 21 3 107
E 21 12 109
E 21 19 102
E 21 20 101
E 22 4 109
E 22 13 109
E 22 19 101
E 23 5 106
E 23 14 106
E 23 20 103
E 23 22 102
E 24 6 110
E 24 15 206
E 24 21 101
E 24 22 102
E 24 23 109
E 25 7 106
E 25 16 107
E 25 19 110
E 25 22 102
E 26 8 203
E 26 17 201
E 26 20 201
E 26 23 202
E 26 25 206
E 27 9 108
E 27 18 102
E 27 21 103
E 27 24 104
E 27 25 106
E 27 26 201
E 28 1 209
E 29 2 107
E 29 28 104
E 30 3 107
E 30 28 109
E 30 29 105
E 31 4 108
E 31 28 104
E 32 5 109
E 32 29 107
E 32 31 107
E 33 6 208
E 33 30 201
E 33 31 209
E 33 32 207
E 34 7 103
E 34 28 106
E 34 31 108
E 35 8 107
E 35 29 102
E 35 32 101
E 35 34 108
E 36 9 105
E 36 30 110
E 36 33 204
E 36 34 103
E 36 35 110
E 37 10 104
E 37 28 101
E 38 11 109
E 38 29 108
E 38 37 105
E 39 12 103
E 39 30 106
E 39 37 101
E 39 38 108
E 40 13 109
E 40 31 101
E 40 37 110
E 41 14 101
E 41 32 109
E 41 38 107
E 41 40 108
E 42 15 208
E 42 33 203
E 42 39 102
E 42 40 109
E 42 41 101
E 43 16 102
E 43 34 101
E 43 37 104
E 43 40 108
E 44 17 208
E 44 35 203
E 44 38 205
E 44 41 209
E 44 43 203
E 45 18 104
E 45 36 102
E 45 39 104
E 45 42 107
E 45 43 101
E 45 44 206
E 46 19 207
E 46 28 205
E 46 37 206
E 47 20 107
E 47 29 110
E 47 38 104
E 47 46 202
E 48 21 102
E 48 30 109
E 48 39 105
E 48 46 204
E 48 47 102
E 49 22 106
E 49 31 103
E 49 40 107
E 49 46 203
E 50 23 110
E 50 32 105
E 50 41 109
E 50 47 106
E 50 49 110
E 51 24 109
E 51 33 209
E 51 42 103
E 51 48 105
E 51 49 109
E 51 50 104
E 52 25 108
E 52 34 104
E 52 43 109
E 52 46 204
E 52 49 105
E 53 26 207
E 53 35 109
E 53 44 206
E 53 47 110
E 53 50 108
E 53 52 101
E 54 27 107
E 54 36 103
E 54 45 103
E 54 48 107
E 54 51 110
E 54 52 106
E 54 53 104
E 55 1 202
E 55 28 105
E 56 2 107
E 56 29 104
E 56 55 102
E 57 3 106
E 57 30 105
E 57 55 108
E 57 56 104
E 58 4 105
E 58 31 105
E 58 55 104
E 59 5 101
E 59 32 101
E 59 56 105
E 59 58 104
E 60 6 210
E 60 33 307
E 60 57 210
E 60 58 208
E 60 59 203
E 61 7 105
E 61 34 109
E 61 55 110
E 61 58 108
E 62 8 108
E 62 35 103
E 62 56 103
E 62 59 105
E 62 61 108
E 63 9 106
E 63 36 103
E 63 57 106
E 63 60 204
E 63 61 109
E 63 62 103
E 64 10 109
E 64 37 107
E 64 55 104
E 65 11 203
E 65 38 206
E 65 56 203
E 65 64 203
E 66 12 103
E 66 39 110
E 66 57 104
E 66 64 107
E 66 65 207
E 67 13 109
E 67 40 101
E 67 58 109
E 67 64 103
E 68 14 107
E 68 41 102
E 68 59 101
E 68 65 202
E 68 67 102
E 69 15 210
E 69 42 106
E 69 60 202
E 69 66 108
E 69 67 101
E 69 68 110
E 70 16 108
E 70 43 109
E 70 61 101
E 70 64 109
E 70 67 103
E 71 17 103
E 71 44 203
E 71 62 109
E 71 65 208
E 71 68 106
E 71 70 107
E 72 18 103
E 72 45 107
E 72 63 109
E 72 66 101
E 72 69 105
E 72 70 102
E 72 71 104
E 73 19 104
E 73 46 205
E 73 55 101
E 73 64 107
E 74 20 109
E 74 47 105
E 74 56 109
E 74 65 201
E 74 73 104
E 75 21 107
E 75 48 110
E 75 57 104
E 75 66 102
E 75 73 101
E 75 74 108
E 76 22 101
E 76 49 104
E 76 58 102
E 76 67 107
E 76 73 101
E 77 23 104
E 77 50 107
E 77 59 101
E 77 68 108
E 77 74 107
E 77 76 110
E 78 24 102
E 78 51 108
E 78 60 207
E 78 69 105
E 78 75 105
E 78 76 105
E 78 77 109
E 79 25 207
E 79 52 203
E 79 61 205
E 79 70 207
E 79 73 208
E 79 76 203
E 80 26 203
E 80 53 110
E 80 62 108
E 80 71 109
E 80 74 106
E 80 77 103
E 80 79 209
E 81 27 102
E 81 54 106
E 81 63 107
E 81 72 106
E 81 75 103
E 81 78 101
E 81 79 204
E 81 80 105
E 82 1 208
E 83 2 105
E 83 82 101
E 84 3 105
E 84 82 105
E 84 83 101
E 85 4 101
E 85 82 101
E 86 5 102
E 86 83 104
E 86 85 106
E 87 6 101
E 87 84 101
E 87 85 105
E 87 86 105
E 88 7 101
E 88 82 102
E 88 85 101
E 89 8 102
E 89 83 102
E 89 86 108
E 89 88 105
E 90 9 206
E 90 84 208
E 90 87 202
E 90 88 202
E 90 89 207
E 91 10 108
E 91 82 105
E 92 11 203
E 92 83 205
E 92 91 210
E 93 12 109
E 93 84 105
E 93 91 104
E 93 92 208
E 94 13 106
E 94 85 103
E 94 91 102
E 95 14 103
E 95 86 109
E 95 92 206
E 95 94 110
E 96 15 205
E 96 87 106
E 96 93 109
E 96 94 107
E 96 95 101
E 97 16 105
E 97 88 105
E 97 91 108
E 97 94 106
E 98 17 107
E 98 89 108
E 98 92 201
E 98 95 107
E 98 97 102
E 99 18 108
E 99 90 205
E 99 93 104
E 99 96 105
E 99 97 110
E 99 98 104
E 100 19 108
E 100 82 107
E 100 91 109
E 101 20 105
E 101 83 102
E 101 92 204
E 101 100 101
E 102 21 101
E 102 84 110
E 102 93 110
E 102 100 107
E 102 101 101
E 103 22 206
E 103 85 204
E 103 94 205
E 103 100 202
E 104 23 110
E 104 86 110
E 104 95 108
E 104 101 101
E 104 103 202
E 105 24 109
E 105 87 107
E 105 96 108
E 105 102 110
E 105 103 202
E 105 104 106
E 106 25 110
E 106 88 109
E 106 97 108
E 106 100 108
E 106 103 209
E 107 26 206
E 107 89 108
E 107 98 110
E 107 101 106
E 107 104 110
E 107 106 101
E 108 27 108
E 108 90 210
E 108 99 102
E 108 102 105
E 108 105 105
E 108 106 103
E 108 107 107
E 109 28 108
E 109 82 108
E 110 29 202
E 110 83 207
E 110 109 205
E 111 30 108
E 111 84 103
E 111 109 107
E 111 110 204
E 112 31 104
E 112 85 107
E 112 109 107
E 113 32 106
E 113 86 104
E 113 110 203
E 113 112 110
E 114 33 208
E 114 87 103
E 114 111 103
E 114 112 109
E 114 113 104
E 115 34 103
E 115 88 107
E 115 109 108
E 115 112 102
E 116 35 102
E 116 89 102
E 116 110 209
E 116 113 101
E 116 115 105
E 117 36 109
E 117 90 207
E 117 111 109
E 117 114 107
E 117 115 109
E 117 116 110
E 118 37 109
E 118 91 104
E 118 109 110
E 119 38 110
E 119 92 201
E 119 110 205
E 119 118 103
E 120 39 102
E 120 93 103
E 120 111 101
E 120 118 109
E 120 119 101
E 121 40 204
E 121 94 203
E 121 112 205
E 121 118 205
E 122 41 105
E 122 95 102
E 122 113 109
E 122 119 107
E 122 121 209
E 123 42 107
E 123 96 101
E 123 114 103
E 123 120 102
E 123 121 205
E 123 122 102
E 124 43 110
E 124 97 101
E 124 115 103
E 124 118 104
E 124 121 201
E 125 44 210
E 125 98 108
E 125 116 108
E 125 119 103
E 125 122 110
E 125 124 108
E 126 45 109
E 126 99 104
E 126 117 107
E 126 120 108
E 126 123 109
E 126 124 104
E 126 125 108
E 127 46 203
E 127 100 105
E 127 109 103
E 127 118 106
E 128 47 102
E 128 101 108
E 128 110 207
E 128 119 102
E 128 127 108
E 129 48 105
E 129 102 107
E 129 111 105
E 129 120 105
E 129 127 104
E 129 128 103
E 130 49 104
E 130 103 209
E 130 112 103
E 130 121 208
E 130 127 105
E 131 50 106
E 131 104 105
E 131 113 109
E 131 122 105
E 131 128 103
E 131 130 108
E 132 51 103
E 132 105 104
E 132 114 104
E 132 123 103
E 132 129 105
E 132 130 104
E 132 131 101
E 133 52 102
E 133 106 108
E 133 115 109
E 133 124 106
E 133 127 102
E 133 130 103
E 134 53 102
E 134 107 101
E 134 116 102
E 134 125 106
E 134 128 104
E 134 131 107
E 134 133 110
E 135 54 208
E 135 108 209
E 135 117 209
E 135 126 203
E 135 129 202
E 135 132 202
E 135 133 210
E 135 134 206
E 136 55 206
E 136 82 203
E 136 109 204
E 137 56 101
E 137 83 107
E 137 110 207
E 137 136 207
E 138 57 107
E 138 84 108
E 138 111 107
E 138 136 202
E 138 137 109
E 139 58 105
E 139 85 105
E 139 112 105
E 139 136 203
E 140 59 105
E 140 86 101
E 140 113 109
E 140 137 104
E 140 139 105
E 141 60 202
E 141 87 108
E 141 114 105
E 141 138 106
E 141 139 106
E 141 140 107
E 142 61 105
E 142 88 105
E 142 115 108
E 142 136 204
E 142 139 107
E 143 62 106
E 143 89 108
E 143 116 104
E 143 137 105
E 143 140 107
E 143 142 106
E 144 63 104
E 144 90 206
E 144 117 110
E 144 138 107
E 144 141 105
E 144 142 106
E 144 143 105
E 145 64 109
E 145 91 107
E 145 118 109
E 145 136 209
E 146 65 209
E 146 92 205
E 146 119 101
E 146 137 101
E 146 145 105
E 147 66 106
E 147 93 102
E 147 120 108
E 147 138 101
E 147 145 104
E 147 146 105
E 148 67 101
E 148 94 108
E 148 121 205
E 148 139 102
E 148 145 102
E 149 68 104
E 149 95 101
E 149 122 101
E 149 140 108
E 149 146 105
E 149 148 103
E 150 69 105
E 150 96 109
E 150 123 110
E 150 141 110
E 150 147 101
E 150 148 103
E 150 149 108
E 151 70 104
E 151 97 104
E 151 124 101
E 151 142 106
E 151 145 105
E 151 148 105
E 152 71 110
E 152 98 103
E 152 125 101
E 152 143 107
E 152 146 110
E 152 149 106
E 152 151 102
E 153 72 208
E 153 99 206
E 153 126 210
E 153 144 210
E 153 147 208
E 153 150 210
E 153 151 205
E 153 152 210
E 154 73 101
E 154 100 108
E 154 127 109
E 154 136 202
E 154 145 103
E 155 74 102
E 155 101 107
E 155 128 107
E 155 137 105
E 155 146 106
E 155 154 104
E 156 75 106
E 156 102 103
E 156 129 102
E 156 138 107
E 156 147 101
E 156 154 103
E 156 155 103
E 157 76 102
E 157 103 210
E 157 130 107
E 157 139 105
E 157 148 106
E 157 154 102
E 158 77 201
E 158 104 207
E 158 131 202
E 158 140 208
E 158 149 205
E 158 155 208
E 158 157 208
E 159 78 104
E 159 105 102
E 159 132 107
E 159 141 101
E 159 150 106
E 159 156 106
E 159 157 108
E 159 158 208
E 160 79 208
E 160 106 104
E 160 133 110
E 160 142 103
E 160 151 106
E 160 154 102
E 160 157 109
E 161 80 101
E 161 107 109
E 161 134 103
E 161 143 105
E 161 152 101
E 161 155 102
E 161 158 202
E 161 160 102
E 162 81 110
E 162 108 102
E 162 135 210
E 162 144 102
E 162 153 207
E 162 156 106
E 162 159 110
E 162 160 107
E 162 161 102
E 163 1 201
E 163 82 109
E 164 2 104
E 164 83 109
E 164 163 108
E 165 3 106
E 165 84 101
E 165 163 103
E 165 164 102
E 166 4 105
E 166 85 110
E 166 163 105
E 167 5 208
E 167 86 206
E 167 164 205
E 167 166 203
E 168 6 103
E 168 87 110
E 168 165 108
E 168 166 101
E 168 167 205
E 169 7 102
E 169 88 110
E 169 163 101
E 169 166 106
E 170 8 106
E 170 89 104
E 170 164 105
E 170 167 204
E 170 169 102
E 171 9 105
E 171 90 208
E 171 165 104
E 171 168 110
E 171 169 102
E 171 170 106
E 172 10 104
E 172 91 102
E 172 163 101
E 173 11 102
E 173 92 204
E 173 164 110
E 173 172 102
E 174 12 103
E 174 93 106
E 174 165 101
E 174 172 101
E 174 173 104
E 175 13 109
E 175 94 109
E 175 166 103
E 175 172 110
E 176 14 108
E 176 95 105
E 176 167 202
E 176 173 106
E 176 175 106
E 177 15 203
E 177 96 109
E 177 168 102
E 177 174 103
E 177 175 103
E 177 176 101
E 178 16 203
E 178 97 209
E 178 169 202
E 178 172 202
E 178 175 201
E 179 17 106
E 179 98 101
E 179 170 105
E 179 173 106
E 179 176 101
E 179 178 208
E 180 18 110
E 180 99 107
E 180 171 108
E 180 174 103
E 180 177 109
E 180 178 209
E 180 179 103
E 181 19 109
E 181 100 102
E 181 163 107
E 181 172 103
E 182 20 105
E 182 101 109
E 182 164 102
E 182 173 110
E 182 181 108
E 183 21 205
E 183 102 209
E 183 165 204
E 183 174 206
E 183 181 201
E 183 182 209
E 184 22 102
E 184 103 205
E 184 166 102
E 184 175 104
E 184 181 104
E 185 23 101
E 185 104 108
E 185 167 206
E 185 176 108
E 185 182 109
E 185 184 104
E 186 24 109
E 186 105 109
E 186 168 104
E 186 177 101
E 186 183 202
E 186 184 110
E 186 185 105
E 187 25 102
E 187 106 105
E 187 169 110
E 187 178 201
E 187 181 104
E 187 184 105
E 188 26 207
E 188 107 108
E 188 170 104
E 188 179 108
E 188 182 104
E 188 185 104
E 188 187 110
E 189 27 105
E 189 108 107
E 189 171 109
E 189 180 109
E 189 183 202
E 189 186 101
E 189 187 107
E 189 188 110
E 190 28 107
E 190 109 104
E 190 163 106
E 191 29 107
E 191 110 208
E 191 164 110
E 191 190 110
E 192 30 105
E 192 111 105
E 192 165 103
E 192 190 101
E 192 191 105
E 193 31 108
E 193 112 102
E 193 166 110
E 193 190 106
E 194 32 109
E 194 113 104
E 194 167 205
E 194 191 108
E 194 193 104
E 195 33 208
E 195 114 101
E 195 168 110
E 195 192 105
E 195 193 106
E 195 194 108
E 196 34 201
E 196 115 206
E 196 169 205
E 196 190 201
E 196 193 205
E 197 35 107
E 197 116 106
E 197 170 107
E 197 191 104
E 197 194 108
E 197 196 205
E 198 36 104
E 198 117 110
E 198 171 105
E 198 192 102
E 198 195 110
E 198 196 206
E 198 197 110
E 199 37 101
E 199 118 101
E 199 172 101
E 199 190 103
E 200 38 106
E 200 119 101
E 200 173 107
E 200 191 101
E 200 199 103
E 201 39 210
E 201 120 205
E 201 174 204
E 201 192 203
E 201 199 204
E 201 200 204
E 202 40 101
E 202 121 201
E 202 175 101
E 202 193 108
E 202 199 102
E 203 41 103
E 203 122 103
E 203 176 101
E 203 194 109
E 203 200 109
E 203 202 106
E 204 42 102
E 204 123 106
E 204 177 106
E 204 195 109
E 204 201 202
E 204 202 108
E 204 203 102
E 205 43 109
E 205 124 103
E 205 178 203
E 205 196 207
E 205 199 109
E 205 202 105
E 206 44 202
E 206 125 105
E 206 179 110
E 206 197 101
E 206 200 104
E 206 203 102
E 206 205 104
E 207 45 104
E 207 126 104
E 207 180 104
E 207 198 101
E 207 201 201
E 207 204 105
E 207 205 110
E 207 206 109
E 208 46 206
E 208 127 109
E 208 181 104
E 208 190 110
E 208 199 104
E 209 47 108
E 209 128 106
E 209 182 102
E 209 191 101
E 209 200 105
E 209 208 107
E 210 48 103
E 210 129 110
E 210 183 208
E 210 192 106
E 210 201 208
E 210 208 102
E 210 209 103
E 211 49 109
E 211 130 102
E 211 184 106
E 211 193 106
E 211 202 104
E 211 208 101
E 212 50 208
E 212 131 206
E 212 185 205
E 212 194 209
E 212 203 210
E 212 209 203
E 212 211 205
E 213 51 101
E 213 132 107
E 213 186 107
E 213 195 107
E 213 204 104
E 213 210 102
E 213 211 109
E 213 212 207
E 214 52 110
E 214 133 104
E 214 187 101
E 214 196 206
E 214 205 110
E 214 208 105
E 214 211 103
E 215 53 102
E 215 134 109
E 215 188 109
E 215 197 108
E 215 206 101
E 215 209 102
E 215 212 205
E 215 214 107
E 216 54 110
E 216 135 208
E 216 189 107
E 216 198 104
E 216 207 104
E 216 210 101
E 216 213 101
E 216 214 106
E 216 215 102
E 217 55 105
E 217 136 202
E 217 163 104
E 217 190 104
E 218 56 101
E 218 137 104
E 218 164 103
E 218 191 106
E 218 217 105
E 219 57 108
E 219 138 109
E 219 165 105
E 219 192 107
E 219 217 109
E 219 218 101
E 220 58 109
E 220 139 110
E 220 166 108
E 220 193 103
E 220 217 108
E 221 59 103
E 221 140 101
E 221 167 205
E 221 194 105
E 221 218 102
E 221 220 103
E 222 60 205
E 222 141 105
E 222 168 107
E 222 195 105
E 222 219 110
E 222 220 101
E 222 221 110
E 223 61 110
E 223 142 106
E 223 169 104
E 223 196 203
E 223 217 102
E 223 220 109
E 224 62 209
E 224 143 202
E 224 170 207
E 224 197 209
E 224 218 207
E 224 221 210
E 224 223 207
E 225 63 110
E 225 144 110
E 225 171 108
E 225 198 103
E 225 219 105
E 225 222 108
E 225 223 106
E 225 224 206
E 226 64 102
E 226 145 104
E 226 172 107
E 226 199 106
E 226 217 108
E 227 65 201
E 227 146 102
E 227 173 110
E 227 200 108
E 227 218 109
E 227 226 109
E 228 66 109
E 228 147 109
E 228 174 110
E 228 201 201
E 228 219 109
E 228 226 108
E 228 227 110
E 229 67 201
E 229 148 202
E 229 175 204
E 229 202 208
E 229 220 206
E 229 226 210
E 230 68 106
E 230 149 102
E 230 176 109
E 230 203 101
E 230 221 109
E 230 227 101
E 230 229 209
E 231 69 106
E 231 150 109
E 231 177 110
E 231 204 107
E 231 222 103
E 231 228 110
E 231 229 202
E 231 230 104
E 232 70 109
E 232 151 104
E 232 178 203
E 232 205 101
E 232 223 108
E 232 226 110
E 232 229 202
E 233 71 105
E 233 152 103
E 233 179 102
E 233 206 101
E 233 224 202
E 233 227 102
E 233 230 105
E 233 232 107
E 234 72 110
E 234 153 202
E 234 180 101
E 234 207 103
E 234 225 101
E 234 228 109
E 234 231 105
E 234 232 108
E 234 233 106
E 235 73 106
E 235 154 101
E 235 181 109
E 235 208 105
E 235 217 101
E 235 226 102
E 236 74 104
E 236 155 103
E 236 182 101
E 236 209 104
E 236 218 104
E 236 227 106
E 236 235 102
E 237 75 209
E 237 156 209
E 237 183 308
E 237 210 205
E 237 219 205
E 237 228 210
E 237 235 206
E 237 236 207
E 238 76 103
E 238 157 108
E 238 184 106
E 238 211 105
E 238 220 105
E 238 229 206
E 238 235 105
E 239 77 104
E 239 158 208
E 239 185 109
E 239 212 203
E 239 221 109
E 239 230 105
E 239 236 108
E 239 238 110
E 240 78 106
E 240 159 103
E 240 186 101
E 240 213 109
E 240 222 110
E 240 231 104
E 240 237 209
E 240 238 108
E 240 239 103
E 241 79 207
E 241 160 101
E 241 187 110
E 241 214 102
E 241 223 105
E 241 232 106
E 241 235 102
E 241 238 108
E 242 80 104
E 242 161 110
E 242 188 108
E 242 215 102
E 242 224 205
E 242 233 105
E 242 236 109
E 242 239 102
E 242 241 105
E 243 81 107
E 243 162 102
E 243 189 103
E 243 216 109
E 243 225 109
E 243 234 106
E 243 237 209
E 243 240 103
E 243 241 101
E 243 242 107
END

SECTION Terminals
Terminals 27
T 1
T 15
T 26
T 33
T 44
T 46
T 60
T 65
T 79
T 90
T 92
T 103
T 110
T 121
T 135
T 136
T 153
T 158
T 167
T 178
T 183
T 196
T 201
T 212
T 224
T 229
T 237
END

EOF
